certificates/rado_a15_c194_N29.cnf
c Rad2 upper bound instance: x1 + 15*x2 - x3 = 194, interval [1,29]
p cnf 29 110
1 2 13 0
-1 -2 -13 0
1 14 17 0
-1 -14 -17 0
2 3 13 0
-2 -3 -13 0
2 14 18 0
-2 -14 -18 0
3 4 13 0
-3 -4 -13 0
3 14 19 0
-3 -14 -19 0
4 5 13 0
-4 -5 -13 0
4 14 20 0
-4 -14 -20 0
5 6 13 0
-5 -6 -13 0
5 14 21 0
-5 -14 -21 0
6 7 13 0
-6 -7 -13 0
6 14 22 0
-6 -14 -22 0
7 8 13 0
-7 -8 -13 0
7 14 23 0
-7 -14 -23 0
8 9 13 0
-8 -9 -13 0
8 14 24 0
-8 -14 -24 0
9 10 13 0
-9 -10 -13 0
9 14 25 0
-9 -14 -25 0
10 11 13 0
-10 -11 -13 0
10 14 26 0
-10 -14 -26 0
11 12 13 0
-11 -12 -13 0
11 14 27 0
-11 -14 -27 0
12 13 0
-12 -13 0
12 14 28 0
-12 -14 -28 0
13 14 0
-13 -14 0
13 14 29 0
-13 -14 -29 0
13 14 15 0
-13 -14 -15 0
1 12 15 0
-1 -12 -15 0
13 15 16 0
-13 -15 -16 0
2 12 16 0
-2 -12 -16 0
13 16 17 0
-13 -16 -17 0
3 12 17 0
-3 -12 -17 0
13 17 18 0
-13 -17 -18 0
4 12 18 0
-4 -12 -18 0
13 18 19 0
-13 -18 -19 0
5 12 19 0
-5 -12 -19 0
13 19 20 0
-13 -19 -20 0
6 12 20 0
-6 -12 -20 0
13 20 21 0
-13 -20 -21 0
7 12 21 0
-7 -12 -21 0
13 21 22 0
-13 -21 -22 0
8 12 22 0
-8 -12 -22 0
13 22 23 0
-13 -22 -23 0
9 12 23 0
-9 -12 -23 0
13 23 24 0
-13 -23 -24 0
10 12 24 0
-10 -12 -24 0
13 24 25 0
-13 -24 -25 0
11 12 25 0
-11 -12 -25 0
13 25 26 0
-13 -25 -26 0
12 26 0
-12 -26 0
13 26 27 0
-13 -26 -27 0
12 13 27 0
-12 -13 -27 0
13 27 28 0
-13 -27 -28 0
13 28 29 0
-13 -28 -29 0
12 15 29 0
-12 -15 -29 0
