certificates/rado_a15_c194_N29.drat
-28 -29 0
d -28 -13 -29 0
-14 -29 0
14 28 0
d 14 12 28 0
-29 0
28 0
-14 0
13 0
-12 0
-27 0
26 0
15 0
11 0
-25 0
-16 0
-10 0
9 0
2 0
24 0
-8 0
-1 0
-3 0
-23 0
22 0
17 0
19 0
7 0
-21 0
-18 0
-20 0
-6 0
5 0
4 0
0
